NAME : kroA100-C-5-1-a__cluster__25586.tour
COMMENT : Length = 25586.000
COMMENT : Generated by compare_sota_instances.py for cluster
TYPE : TOUR
DIMENSION : 100
TOUR_SECTION
12
27
35
86
20
62
60
77
1
98
45
23
91
32
11
15
17
59
74
21
72
47
90
92
8
42
89
31
80
56
97
75
19
4
26
65
66
70
22
16
94
88
53
79
18
24
38
99
36
84
10
63
6
49
93
28
58
67
69
64
54
40
2
44
50
82
95
13
76
33
37
5
78
52
96
39
85
68
73
81
25
61
51
87
9
7
57
55
83
34
29
46
43
3
41
71
14
100
48
30
-1
EOF
